
Gurobi 11.0.3 (linux64) logging started Tue 19 Nov 2024 12:50:59 AM CST

Set parameter LogFile to value "/home/dlcole3/graph_abstraction/hierarchical_graphs/git_storage/CS1/HP_low_reserves/gurobi_logs/serial/logfile_ST27_5.log"

Gurobi 11.0.3 (linux64) logging started Tue 19 Nov 2024 12:53:15 AM CST

Set parameter LogFile to value "/home/dlcole3/graph_abstraction/hierarchical_graphs/git_storage/CS1/HP_low_reserves/gurobi_logs/serial/logfile_ST27_5.log"
Gurobi Optimizer version 11.0.3 build v11.0.3rc0 (linux64 - "Ubuntu 18.04.3 LTS")

CPU model: Intel(R) Xeon(R) CPU E5-2698 v4 @ 2.20GHz, instruction set [SSE2|AVX|AVX2]
Thread count: 40 physical cores, 80 logical processors, using up to 20 threads

Optimize a model with 29168 rows, 50688 columns and 136175 nonzeros
Model fingerprint: 0x40490ba8
Variable types: 46944 continuous, 3744 integer (3744 binary)
Coefficient statistics:
  Matrix range     [6e-01, 2e+04]
  Objective range  [2e+00, 2e+04]
  Bounds range     [5e-02, 2e+05]
  RHS range        [5e-03, 7e+03]
Presolve removed 14646 rows and 38819 columns
Presolve time: 0.36s
Presolved: 14522 rows, 11869 columns, 61716 nonzeros
Variable types: 8991 continuous, 2878 integer (2878 binary)
Found heuristic solution: objective 247940.38338

Root relaxation: objective 2.687587e+04, 8471 iterations, 0.44 seconds (0.33 work units)

    Nodes    |    Current Node    |     Objective Bounds      |     Work
 Expl Unexpl |  Obj  Depth IntInf | Incumbent    BestBd   Gap | It/Node Time

     0     0 26875.8722    0    6 247940.383 26875.8722  89.2%     -    1s
H    0     0                    47068.118348 26875.8722  42.9%     -    1s
H    0     0                    47068.118316 26875.8722  42.9%     -    1s
     0     0 26875.8722    0    6 47068.1183 26875.8722  42.9%     -    1s
     0     2 26875.8722    0    6 47068.1183 26875.8722  42.9%     -    2s
H   26    32                    29717.581550 26875.9601  9.56%  58.8    2s
H   35    35                    29717.581519 26875.9601  9.56%  48.3    2s
H   39    35                    29717.581309 26879.9758  9.55%  44.9    2s
H   53    35                    29417.372318 26879.9758  8.63%  39.8    2s
H   53    35                    29216.080730 26879.9758  8.00%  39.8    2s
H   64    51                    27811.989601 26879.9758  3.35%  39.4    2s
H   73    51                    27811.904436 26879.9758  3.35%  38.6    2s
H   87    55                    27798.452667 26879.9758  3.30%  36.5    2s
H   97    61                    27643.632710 26879.9758  2.76%  33.5    2s
H  153    28                    27643.632683 26879.9758  2.76%  26.4    2s
H  160    28                    27204.416884 26879.9758  1.19%  27.1    2s
H  207    13                    27184.428101 26879.9758  1.12%  23.1    3s
H  210    13                    27183.081437 26879.9758  1.12%  22.9    3s
*  268     2              21    27182.992684 27145.0826  0.14%  19.7    3s

Explored 273 nodes (13796 simplex iterations) in 3.27 seconds (2.14 work units)
Thread count was 20 (of 80 available processors)

Solution count 10: 27183 27183 27183.1 ... 29216.1

Optimal solution found (tolerance 3.00e-03)
Best objective 2.718299268506e+04, best bound 2.714508255640e+04, gap 0.1395%

User-callback calls 2112, time in user-callback 0.00 sec
